NAME: ACTUAL_TOURS/amz1123
TYPE: TOUR
COMMENT: RouteID_7753d516-82f5-4f97-97d4-21b2438df4d5
DIMENSION: 165
TOUR_SECTION
111
16
131
157
139
6
92
136
113
93
96
95
87
45
35
122
84
106
29
18
4
72
137
56
156
70
112
73
57
33
149
160
90
117
155
118
152
108
34
54
64
98
145
150
36
47
74
30
43
39
135
102
52
12
125
80
134
86
123
42
32
23
8
5
20
144
153
67
88
142
24
147
60
63
99
13
100
158
44
58
82
37
31
105
119
55
51
69
85
143
120
109
76
146
1
104
164
97
115
159
165
3
50
40
77
116
151
10
65
66
162
71
17
14
61
26
121
130
127
27
75
22
126
68
128
38
59
91
140
2
83
94
53
7
161
81
107
129
79
138
25
163
28
141
11
110
21
41
46
114
124
148
15
154
9
19
62
101
103
49
78
89
48
132
133
-1
EOF
